11258 14812
45430 7025
53251 20552
20377 32808
30312 16856
14175 8571
63161 25927
9331 22644
13911 16032
12515 50640
47103 18202
46282 22325
25761 41060
51642 62594
58524 34221
53007 23883
5574 57580
7386 17374
17710 35550
64674 19109
58067 63812
15723 36820
2483 16418
21093 62878
36471 48395
2018 57350
52362 5317
19243 15849
63871 10605
57432 5727
8810 25996
261 15385
56732 18064
32501 32936
27179 32460
39019 24773
57611 46280
40765 13209
30898 25777
38087 56278
38356 60447
55723 46972
61028 49905
9795 19731
13596 22475
65347 56544
35060 49520
22330 46555
43732 50264
46176 59593
